(set-logic QF_FP)
(declare-fun fp-equality2 () Bool)
(declare-fun addition0 () (_ FloatingPoint 3 3))
(declare-fun conjunction3 () Bool)
(declare-fun x () (_ FloatingPoint 3 3))
(declare-fun y () (_ FloatingPoint 3 3))
(declare-fun fp-equality1 () Bool)
(assert (= addition0 (fp.add RTP x (fp #b0 #b011 #b11))))
(assert (= fp-equality1 (= (fp.add RTP x (fp #b0 #b011 #b11)) y)))
(assert (= fp-equality2 (= x (fp #b0 #b100 #b00))))
(assert (= conjunction3 (and (= (fp.add RTP x (fp #b0 #b011 #b11)) y) (= x (fp #b0 #b100 #b00)))))
(assert (and (= (fp.add RTP x (fp #b0 #b011 #b11)) y) (= x (fp #b0 #b100 #b00))))
(check-sat)